
%FILE DATA:	Soccer Computational Problem for MiniZinc Models	%
%AUTHOR:	Jack Wall	%
%CONTACT:  	116397063@umail.ucc.ie			%
%LAST UPDATE:	03/03/2020, 16:09:05						%
%DESCRIPTION: 	63 games played with 9 games left				%


n=9; %number of teams

%Games to play
games=[|4,7|5,6|9,1|7,3|9,2|7,6|4,3|9,7|2,9|];

%Initial points
iPoints=[27,20,16,16,17,22,17,23,14];

%POSITION CONSTRAINTS
% [|teamID, operator, position|...]
% operators index:
%  1 for =  operator
%  2 for >  operator
%  3 for >= operator
%  4 for <  operator
%  5 for <= operator
positionConstraints=[|1,3,1|9,3,2|8,5,3|];